\ENCODING=ISO-8859-1
\Problem name: mockup5

Minimize
 obj1: 0 x(1,1) + x(1,2) + x(1,3) + x(1,4) + x(1,5) + x(2,1) + 0 x(2,2)
       + x(2,3) + x(2,4) + x(2,5) + x(3,1) + x(3,2) + 0 x(3,3) + x(3,4)
       + x(3,5) + x(4,1) + x(4,2) + x(4,3) + 0 x(4,4) + x(4,5) + x(5,1)
       + x(5,2) + x(5,3) + x(5,4) + 0 x(5,5) + 0 u(1)
Subject To
 degree(1):  x(1,2) + x(1,3) + x(1,4) + x(1,5)  = 1
 degree(2):  x(2,1) + x(2,3) + x(2,4) + x(2,5)  = 1
 degree(3):  x(3,1) + x(3,2) + x(3,4) + x(3,5)  = 1
 degree(4):  x(4,1) + x(4,2) + x(4,3) + x(4,5)  = 1
 degree(5):  x(5,1) + x(5,2) + x(5,3) + x(5,4)  = 1
 degree(6):  x(2,1) + x(3,1) + x(4,1) + x(5,1)  = 1
 degree(7):  x(1,2) + x(3,2) + x(4,2) + x(5,2)  = 1
 degree(8):  x(1,3) + x(2,3) + x(4,3) + x(5,3)  = 1
 degree(9):  x(1,4) + x(2,4) + x(3,4) + x(5,4)  = 1
 degree(10): x(1,5) + x(2,5) + x(3,5) + x(4,5)  = 1
 inc(1):     4 x(2,3) + u(2) - u(3) <= 3
 inc(2):     4 x(2,4) + u(2) - u(4) <= 3
 inc(3):     4 x(2,5) + u(2) - u(5) <= 3
 inc(4):     4 x(3,2) - u(2) + u(3) <= 3
 inc(5):     4 x(3,4) + u(3) - u(4) <= 3
 inc(6):     4 x(3,5) + u(3) - u(5) <= 3
 inc(7):     4 x(4,2) - u(2) + u(4) <= 3
 inc(8):     4 x(4,3) - u(3) + u(4) <= 3
 inc(9):     4 x(4,5) + u(4) - u(5) <= 3
 inc(10):    4 x(5,2) - u(2) + u(5) <= 3
 inc(11):    4 x(5,3) - u(3) + u(5) <= 3
 inc(12):    4 x(5,4) - u(4) + u(5) <= 3
Bounds
      x(1,1) = 0
 0 <= x(1,2) <= 1
 0 <= x(1,3) <= 1
 0 <= x(1,4) <= 1
 0 <= x(1,5) <= 1
 0 <= x(2,1) <= 1
      x(2,2) = 0
 0 <= x(2,3) <= 1
 0 <= x(2,4) <= 1
 0 <= x(2,5) <= 1
 0 <= x(3,1) <= 1
 0 <= x(3,2) <= 1
      x(3,3) = 0
 0 <= x(3,4) <= 1
 0 <= x(3,5) <= 1
 0 <= x(4,1) <= 1
 0 <= x(4,2) <= 1
 0 <= x(4,3) <= 1
      x(4,4) = 0
 0 <= x(4,5) <= 1
 0 <= x(5,1) <= 1
 0 <= x(5,2) <= 1
 0 <= x(5,3) <= 1
 0 <= x(5,4) <= 1
      x(5,5) = 0
      u(1) = 0
 0 <= u(2) <= 3
 0 <= u(3) <= 3
 0 <= u(4) <= 3
 0 <= u(5) <= 3
Binaries
 x(1,1)  x(1,2)  x(1,3)  x(1,4)  x(1,5)  x(2,1)  x(2,2)  x(2,3)  x(2,4) 
 x(2,5)  x(3,1)  x(3,2)  x(3,3)  x(3,4)  x(3,5)  x(4,1)  x(4,2)  x(4,3) 
 x(4,4)  x(4,5)  x(5,1)  x(5,2)  x(5,3)  x(5,4)  x(5,5) 
Generals
 u(1)  u(2)  u(3)  u(4)  u(5) 
End
